145512
59, 66, 10, 27, 28, 76, 24, 43, 79, 91, 60, 96, 78, 94, 3, 105, 101, 70, 18, 84, 53, 52, 65, 31, 98, 106, 8, 97, 55, 29, 30, 5, 13, 88, 69, 6, 40, 56, 20, 16, 64, 90, 17, 21, 22, 62, 25, 45, 86, 46, 77, 81, 42, 19, 9, 92, 23, 12, 93, 89, 80, 57, 83, 34, 26, 50, 68, 99, 100, 51, 72, 82, 33, 2, 73, 48, 85, 11, 41, 67, 38, 104, 95, 54, 71, 36, 39, 37, 49, 7, 32, 63, 35, 75, 15, 4, 103, 61, 47, 14, 74, 102, 58, 1, 87, 44
